c generated by sgen
p cnf 125 260
-2 -3 -4 0
-1 -3 -4 0
-1 -2 -4 0
-1 -2 -3 0
-6 -7 -8 0
-5 -7 -8 0
-5 -6 -8 0
-5 -6 -7 0
-10 -11 -12 0
-9 -11 -12 0
-9 -10 -12 0
-9 -10 -11 0
-14 -15 -16 0
-13 -15 -16 0
-13 -14 -16 0
-13 -14 -15 0
-18 -19 -20 0
-17 -19 -20 0
-17 -18 -20 0
-17 -18 -19 0
-22 -23 -24 0
-21 -23 -24 0
-21 -22 -24 0
-21 -22 -23 0
-26 -27 -28 0
-25 -27 -28 0
-25 -26 -28 0
-25 -26 -27 0
-30 -31 -32 0
-29 -31 -32 0
-29 -30 -32 0
-29 -30 -31 0
-34 -35 -36 0
-33 -35 -36 0
-33 -34 -36 0
-33 -34 -35 0
-38 -39 -40 0
-37 -39 -40 0
-37 -38 -40 0
-37 -38 -39 0
-42 -43 -44 0
-41 -43 -44 0
-41 -42 -44 0
-41 -42 -43 0
-46 -47 -48 0
-45 -47 -48 0
-45 -46 -48 0
-45 -46 -47 0
-50 -51 -52 0
-49 -51 -52 0
-49 -50 -52 0
-49 -50 -51 0
-54 -55 -56 0
-53 -55 -56 0
-53 -54 -56 0
-53 -54 -55 0
-58 -59 -60 0
-57 -59 -60 0
-57 -58 -60 0
-57 -58 -59 0
-62 -63 -64 0
-61 -63 -64 0
-61 -62 -64 0
-61 -62 -63 0
-66 -67 -68 0
-65 -67 -68 0
-65 -66 -68 0
-65 -66 -67 0
-70 -71 -72 0
-69 -71 -72 0
-69 -70 -72 0
-69 -70 -71 0
-74 -75 -76 0
-73 -75 -76 0
-73 -74 -76 0
-73 -74 -75 0
-78 -79 -80 0
-77 -79 -80 0
-77 -78 -80 0
-77 -78 -79 0
-82 -83 -84 0
-81 -83 -84 0
-81 -82 -84 0
-81 -82 -83 0
-86 -87 -88 0
-85 -87 -88 0
-85 -86 -88 0
-85 -86 -87 0
-90 -91 -92 0
-89 -91 -92 0
-89 -90 -92 0
-89 -90 -91 0
-94 -95 -96 0
-93 -95 -96 0
-93 -94 -96 0
-93 -94 -95 0
-98 -99 -100 0
-97 -99 -100 0
-97 -98 -100 0
-97 -98 -99 0
-102 -103 -104 0
-101 -103 -104 0
-101 -102 -104 0
-101 -102 -103 0
-106 -107 -108 0
-105 -107 -108 0
-105 -106 -108 0
-105 -106 -107 0
-110 -111 -112 0
-109 -111 -112 0
-109 -110 -112 0
-109 -110 -111 0
-114 -115 -116 0
-113 -115 -116 0
-113 -114 -116 0
-113 -114 -115 0
-118 -119 -120 0
-117 -119 -120 0
-117 -118 -120 0
-117 -118 -119 0
-121 -122 -123 0
-121 -122 -124 0
-121 -122 -125 0
-121 -123 -124 0
-121 -123 -125 0
-121 -124 -125 0
-122 -123 -124 0
-122 -123 -125 0
-122 -124 -125 0
-123 -124 -125 0
110 88 27 0
51 88 27 0
51 110 27 0
51 110 88 0
65 37 117 0
125 37 117 0
125 65 117 0
125 65 37 0
11 122 4 0
100 122 4 0
100 11 4 0
100 11 122 0
54 115 32 0
59 115 32 0
59 54 32 0
59 54 115 0
16 17 34 0
119 17 34 0
119 16 34 0
119 16 17 0
105 20 38 0
6 20 38 0
6 105 38 0
6 105 20 0
21 55 9 0
62 55 9 0
62 21 9 0
62 21 55 0
95 8 25 0
23 8 25 0
23 95 25 0
23 95 8 0
76 42 86 0
70 42 86 0
70 76 86 0
70 76 42 0
121 102 111 0
120 102 111 0
120 121 111 0
120 121 102 0
46 68 80 0
10 68 80 0
10 46 80 0
10 46 68 0
47 57 1 0
36 57 1 0
36 47 1 0
36 47 57 0
31 99 73 0
22 99 73 0
22 31 73 0
22 31 99 0
85 98 92 0
48 98 92 0
48 85 92 0
48 85 98 0
49 56 97 0
18 56 97 0
18 49 97 0
18 49 56 0
41 26 45 0
124 26 45 0
124 41 45 0
124 41 26 0
96 112 89 0
35 112 89 0
35 96 89 0
35 96 112 0
72 79 5 0
60 79 5 0
60 72 5 0
60 72 79 0
118 114 2 0
43 114 2 0
43 118 2 0
43 118 114 0
77 40 81 0
93 40 81 0
93 77 81 0
93 77 40 0
123 61 52 0
82 61 52 0
82 123 52 0
82 123 61 0
108 71 66 0
29 71 66 0
29 108 66 0
29 108 71 0
101 91 39 0
15 91 39 0
15 101 39 0
15 101 91 0
58 83 67 0
28 83 67 0
28 58 67 0
28 58 83 0
90 3 69 0
24 3 69 0
24 90 69 0
24 90 3 0
116 75 13 0
64 75 13 0
64 116 13 0
64 116 75 0
104 78 63 0
19 78 63 0
19 104 63 0
19 104 78 0
109 53 14 0
106 53 14 0
106 109 14 0
106 109 53 0
7 113 87 0
103 113 87 0
103 7 87 0
103 7 113 0
50 74 33 0
107 74 33 0
107 50 33 0
107 50 74 0
12 84 44 0
12 84 30 0
12 84 94 0
12 44 30 0
12 44 94 0
12 30 94 0
84 44 30 0
84 44 94 0
84 30 94 0
44 30 94 0
